p cnf 19 7
e 1 2 3 0
a 4 5 0
e 6 0
a 7 0
e 8 0
a 9 10 0
e 11 0
a 12 13 0
e 14 0
a 15 16 0
e 17 18 0
a 19 0
-5 3 8 9 0
3 -1 10 -13 -17 0
6 11 14 -7 16 0
-17 2 0
-8 13 -14 16 5 0
17 4 -15 1 14 0
-1 -16 -15 -18 0
